3070
3070
3070
3070
3070
3070
3070
2982
2982
2982
2982
2982
2982
2982
2982
2982
2982
2982
2982
2982
2982
2982
2982
2982
2982
2982
2982
2982
2982
2982
2982
2982
2982
2982
2982
2982
2982
2982
2982
2982
2982
2982
2982
2982
2982
2982
2982
2982
2982
2982
2982
2982
2982
2982
2982
2982
2982
2982
2982
2982
2982
2982
2982
2982
2982
2982
2982
2982
2982
2982
2982
2982
2982
2982
2914
2914
2914
2914
2914
2914
2914
2914
2914
2914
2914
2914
2914
2914
2914
2914
2914
2914
2914
2914
2914
2914
2914
2914
2914
2914
2914
2914
2914
2914
2914
2914
2914
2914
2914
2914
2914
2914
2914
2914
2914
2914
2914
2914
2914
2914
2914
2914
2914
2914
2914
2914
2914
2914
2914
2914
2914
2914
2914
2914
2914
2914
2914
2914
2914
2914
2914
2914
2914
2914
2914
2914
2914
2914
2914
2914
2438
20.74